unknown
(model
; cardinality of BoundSet is 2
(declare-sort BoundSet 0)
; rep: @uc_BoundSet_0
; rep: @uc_BoundSet_1
; cardinality of UnboundSet is 1
(declare-sort UnboundSet 0)
(declare-fun groundTerm_3 () UnboundSet)
(define-fun IsYoung ((BOUND_VARIABLE_423 BoundSet)) Bool true)
(define-fun IsInOrangeShirt ((BOUND_VARIABLE_423 BoundSet)) Bool true)
(define-fun HasSkateboard ((BOUND_VARIABLE_423 BoundSet)) Bool true)
(define-fun IsAtTopOfRamp ((BOUND_VARIABLE_430 BoundSet) (BOUND_VARIABLE_431 BoundSet)) Bool true)
(define-fun IsPerson ((BOUND_VARIABLE_423 BoundSet)) Bool false)
(define-fun RidesSkateboard ((BOUND_VARIABLE_430 BoundSet) (BOUND_VARIABLE_431 BoundSet)) Bool false)
)
sat
(model
; cardinality of BoundSet is 1
(declare-sort BoundSet 0)
; rep: @uc_BoundSet_0
; cardinality of UnboundSet is 1
(declare-sort UnboundSet 0)
(declare-fun groundTerm_5 () UnboundSet)
(define-fun IsYoung ((BOUND_VARIABLE_471 BoundSet)) Bool true)
(define-fun IsInOrangeShirt ((BOUND_VARIABLE_471 BoundSet)) Bool true)
(define-fun HasSkateboard ((BOUND_VARIABLE_471 BoundSet)) Bool true)
(define-fun IsAtTopOfRamp ((BOUND_VARIABLE_478 BoundSet) (BOUND_VARIABLE_479 BoundSet)) Bool true)
(define-fun IsPerson ((BOUND_VARIABLE_471 BoundSet)) Bool false)
(define-fun RidesSkateboard ((BOUND_VARIABLE_478 BoundSet) (BOUND_VARIABLE_479 BoundSet)) Bool true)
)
